qbf_easy_train/easy_5858_SAT.qdimacs
p cnf 25 66
a 1 12 15 0
e 2 3 4 5 6 7 8 9 10 11 13 14 16 17 18 19 20 21 22 23 24 25 0
-1 2 0
1 2 0
-3 -4 -5 0
3 4 -5 0
-3 4 5 0
3 -4 5 0
-7 -5 0
-7 -6 0
5 6 7 0
8 9 -10 0
-8 -9 -10 0
8 -9 10 0
-8 9 10 0
5 -10 -11 0
-5 10 -11 0
5 10 11 0
-5 -10 11 0
-12 7 0
-12 11 0
-7 -11 12 0
6 8 -13 0
-6 -8 -13 0
6 -8 13 0
-6 8 13 0
-6 13 -14 0
6 -13 -14 0
-6 -13 14 0
6 13 14 0
-14 15 -16 0
14 -15 -16 0
-14 -15 16 0
14 15 16 0
-17 12 0
-17 -16 0
-12 16 17 0
-18 -3 0
-18 -8 0
3 8 18 0
18 10 -19 0
-18 -10 -19 0
18 -10 19 0
-18 10 19 0
-9 -19 -20 0
9 19 -20 0
-9 19 20 0
9 -19 20 0
-21 -17 0
-21 20 0
17 -20 21 0
-23 -1 0
-23 22 0
1 -22 23 0
21 -23 -24 0
-21 23 -24 0
21 23 24 0
-21 -23 24 0
-25 2 0
-25 -24 0
-2 24 25 0
-9 -25 12 17 -13 16 0
-7 -18 21 -8 5 0
3 -15 19 16 -21 -4 11 0
4 20 -22 17 -5 0
14 8 0
4 17 -22 -5 -1 0
25 0
