sat_easy_train/easy_5858_SAT.dimacs
p cnf 115 386
-3 -1 0
-3 2 0
1 -2 3 0
-5 2 0
-5 4 0
-2 -4 5 0
6 3 -7 0
-6 -3 -7 0
6 -3 7 0
-6 3 7 0
10 -8 0
10 9 0
8 -9 -10 0
-11 -2 0
-11 10 0
2 -10 11 0
7 -11 -12 0
-7 11 -12 0
7 11 12 0
-7 -11 12 0
1 2 -13 0
-1 -2 -13 0
1 -2 13 0
-1 2 13 0
13 14 -15 0
-13 -14 -15 0
13 -14 15 0
-13 14 15 0
-16 -12 0
-16 -15 0
12 15 16 0
-5 16 -17 0
5 -16 -17 0
-5 -16 17 0
5 16 17 0
-18 -3 0
-18 17 0
3 -17 18 0
20 14 0
20 19 0
-14 -19 -20 0
-18 -20 -21 0
18 20 -21 0
-18 20 21 0
18 -20 21 0
22 13 0
22 -15 0
-13 15 -22 0
-24 8 0
-24 -23 0
-8 23 24 0
26 -24 0
26 -25 0
24 25 -26 0
-28 27 0
-28 4 0
-27 -4 28 0
-26 28 -29 0
26 -28 -29 0
-26 -28 29 0
26 28 29 0
30 -22 0
30 -29 0
22 29 -30 0
20 19 -31 0
-20 -19 -31 0
20 -19 31 0
-20 19 31 0
27 -1 -32 0
-27 1 -32 0
27 1 32 0
-27 -1 32 0
-31 32 -33 0
31 -32 -33 0
-31 -32 33 0
31 32 33 0
18 -32 -34 0
-18 32 -34 0
18 32 34 0
-18 -32 34 0
-36 -2 0
-36 35 0
2 -35 36 0
14 36 -37 0
-14 -36 -37 0
14 -36 37 0
-14 36 37 0
38 -20 0
38 -37 0
20 37 -38 0
39 34 0
39 -38 0
-34 38 -39 0
40 -39 0
40 6 0
39 -6 -40 0
-41 33 0
-41 40 0
-33 -40 41 0
-30 41 -42 0
30 -41 -42 0
-30 -41 42 0
30 41 42 0
-43 -15 -44 0
43 15 -44 0
-43 15 44 0
43 -15 44 0
45 -44 0
45 -4 0
44 4 -45 0
-45 1 -46 0
45 -1 -46 0
-45 -1 46 0
45 1 46 0
-47 -14 0
-47 46 0
14 -46 47 0
31 2 -48 0
-31 -2 -48 0
31 -2 48 0
-31 2 48 0
-49 48 0
-49 -38 0
-48 38 49 0
-50 47 0
-50 -49 0
-47 49 50 0
-20 -27 -51 0
20 27 -51 0
-20 27 51 0
20 -27 51 0
12 -51 -52 0
-12 51 -52 0
12 51 52 0
-12 -51 52 0
43 8 -54 0
-43 -8 -54 0
43 -8 54 0
-43 8 54 0
-55 -16 0
-55 54 0
16 -54 55 0
-53 -55 -56 0
53 55 -56 0
-53 55 56 0
53 -55 56 0
-57 -52 0
-57 56 0
52 -56 57 0
-58 50 0
-58 57 0
-50 -57 58 0
-42 58 -59 0
42 -58 -59 0
-42 -58 59 0
42 58 59 0
-61 2 0
-61 60 0
-2 -60 61 0
-13 -61 -62 0
13 61 -62 0
-13 61 62 0
13 -61 62 0
-63 -3 0
-63 51 0
3 -51 63 0
13 63 -64 0
-13 -63 -64 0
13 -63 64 0
-13 63 64 0
65 8 0
65 -64 0
-8 64 -65 0
66 62 0
66 -65 0
-62 65 -66 0
-67 43 0
-67 66 0
-43 -66 67 0
68 51 0
68 -20 0
-51 20 -68 0
69 -68 0
69 -5 0
68 5 -69 0
-70 67 0
-70 -69 0
-67 69 70 0
71 -46 0
71 -15 0
46 15 -71 0
4 -71 -72 0
-4 71 -72 0
4 71 72 0
-4 -71 72 0
73 70 0
73 72 0
-70 -72 -73 0
74 -59 0
74 73 0
59 -73 -74 0
-75 21 0
-75 74 0
-21 -74 75 0
-60 -32 -76 0
60 32 -76 0
-60 32 76 0
60 -32 76 0
38 76 -77 0
-38 -76 -77 0
38 -76 77 0
-38 76 77 0
78 24 0
78 25 0
-24 -25 -78 0
79 6 0
79 23 0
-6 -23 -79 0
-80 78 0
-80 79 0
-78 -79 80 0
81 -38 0
81 80 0
38 -80 -81 0
-82 -77 0
-82 81 0
77 -81 82 0
-83 -14 0
-83 11 0
14 -11 83 0
-38 83 -84 0
38 -83 -84 0
-38 -83 84 0
38 83 84 0
-85 -12 0
-85 84 0
12 -84 85 0
-82 85 -86 0
82 -85 -86 0
-82 -85 86 0
82 85 86 0
-88 87 0
-88 60 0
-87 -60 88 0
-89 86 0
-89 88 0
-86 -88 89 0
-90 -75 0
-90 89 0
75 -89 90 0
-91 -16 0
-91 61 0
16 -61 91 0
-15 61 -92 0
15 -61 -92 0
-15 -61 92 0
15 61 92 0
-66 -92 -93 0
66 92 -93 0
-66 92 93 0
66 -92 93 0
-94 -11 0
-94 83 0
11 -83 94 0
93 94 -95 0
-93 -94 -95 0
93 -94 95 0
-93 94 95 0
96 -38 0
96 -4 0
38 4 -96 0
61 -46 -97 0
-61 46 -97 0
61 46 97 0
-61 -46 97 0
-98 23 0
-98 -16 0
-23 16 98 0
-97 -98 -99 0
97 98 -99 0
-97 98 99 0
97 -98 99 0
13 -18 -100 0
-13 18 -100 0
13 18 100 0
-13 -18 100 0
45 -1 -101 0
-45 1 -101 0
45 1 101 0
-45 -1 101 0
-102 100 0
-102 101 0
-100 -101 102 0
-103 99 0
-103 -102 0
-99 102 103 0
-104 -96 0
-104 103 0
96 -103 104 0
105 95 0
105 -104 0
-95 104 -105 0
106 -91 0
106 -105 0
91 105 -106 0
107 39 0
107 31 0
-39 -31 -107 0
106 -107 -108 0
-106 107 -108 0
106 107 108 0
-106 -107 108 0
109 90 0
109 -108 0
-90 108 -109 0
110 -37 0
110 5 0
37 -5 -110 0
-111 110 0
-111 -25 0
-110 25 111 0
1 17 -112 0
-1 -17 -112 0
1 -17 112 0
-1 17 112 0
113 -79 0
113 -112 0
79 112 -113 0
-111 -113 -114 0
111 113 -114 0
-111 113 114 0
111 -113 114 0
-115 109 0
-115 114 0
-109 -114 115 0
-13 88 0
-87 46 -66 96 -37 0
99 55 30 11 -8 0
-5 -81 -112 49 101 0
51 113 -19 -83 -82 63 0
-103 115 0
-19 -50 -40 85 -45 96 0
-28 -63 0
86 -61 -83 9 39 45 0
-4 -91 -115 -99 -100 -32 0
104 -19 -52 93 -114 -83 0
85 57 -46 -74 -15 0
-54 35 -53 97 0
-41 55 -49 86 -47 0
-9 -108 0
82 56 0
107 21 27 -54 0
-101 87 33 -15 63 70 0
91 13 -42 0
68 -39 40 25 4 100 0
64 -88 1 78 -48 15 0
-105 -103 62 16 -3 0
83 69 -27 5 0
-48 52 -60 0
33 48 55 -105 -78 -109 0
-105 71 46 -16 -111 0
-19 -104 -54 71 -27 -113 0
-59 -12 0
-49 -110 0
64 -43 12 -36 3 0
-94 84 -37 -2 0
-43 19 0
100 96 5 12 0
91 -101 -34 25 -89 0
32 -59 16 -89 0
38 -43 -7 -3 0
-100 41 7 71 -77 58 0
-25 -89 -3 0
102 30 68 105 0
3 -65 -84 37 0
71 -74 -84 0
-106 -32 -10 63 -105 90 0
-47 -29 -70 -9 0
-20 -66 -34 -45 0
-82 92 63 -41 9 0
14 -2 0
-107 108 -74 -43 0
34 -85 -67 43 -39 0
113 -89 -5 58 18 12 0
93 -65 27 0
115 0
